p cnf 967 2484
51 -2 -1 0
-51 2 0
-51 1 0
52 -51 -3 0
-52 51 0
-52 3 0
53 -4 -700 0
-53 4 0
-53 700 0
54 -53 -5 0
-54 53 0
-54 5 0
55 -701 -702 0
-55 701 0
-55 702 0
56 -7 -6 0
-56 7 0
-56 6 0
57 -56 -8 0
-57 56 0
-57 8 0
58 -703 -55 0
-58 703 0
-58 55 0
59 -704 -705 0
-59 704 0
-59 705 0
60 -59 -706 0
-60 59 0
-60 706 0
61 -707 -58 0
-61 707 0
-61 58 0
62 -708 -709 0
-62 708 0
-62 709 0
63 -62 -14 0
-63 62 0
-63 14 0
64 -710 -61 0
-64 710 0
-64 61 0
65 -711 -15 0
-65 711 0
-65 15 0
66 -65 -17 0
-66 65 0
-66 17 0
67 -712 -64 0
-67 712 0
-67 64 0
68 -18 -713 0
-68 18 0
-68 713 0
69 -68 -714 0
-69 68 0
-69 714 0
70 -715 -67 0
-70 715 0
-70 67 0
71 -20 -18 0
-71 20 0
-71 18 0
72 -71 -716 0
-72 71 0
-72 716 0
73 -717 -70 0
-73 717 0
-73 70 0
74 -718 -8 0
-74 718 0
-74 8 0
75 -74 -22 0
-75 74 0
-75 22 0
76 -719 -73 0
-76 719 0
-76 73 0
77 -720 -12 0
-77 720 0
-77 12 0
78 -77 -721 0
-78 77 0
-78 721 0
79 -722 -76 0
-79 722 0
-79 76 0
80 -723 -15 0
-80 723 0
-80 15 0
81 -80 -1 0
-81 80 0
-81 1 0
82 -724 -79 0
-82 724 0
-82 79 0
83 -725 -20 0
-83 725 0
-83 20 0
84 -83 -26 0
-84 83 0
-84 26 0
85 -726 -82 0
-85 726 0
-85 82 0
86 -727 -728 0
-86 727 0
-86 728 0
87 -86 -729 0
-87 86 0
-87 729 0
88 -730 -85 0
-88 730 0
-88 85 0
89 -29 -709 0
-89 29 0
-89 709 0
90 -89 -17 0
-90 89 0
-90 17 0
91 -731 -88 0
-91 731 0
-91 88 0
92 -30 -22 0
-92 30 0
-92 22 0
93 -92 -708 0
-93 92 0
-93 708 0
94 -732 -91 0
-94 732 0
-94 91 0
95 -31 -20 0
-95 31 0
-95 20 0
96 -95 -3 0
-96 95 0
-96 3 0
97 -733 -94 0
-97 733 0
-97 94 0
98 -32 -31 0
-98 32 0
-98 31 0
99 -98 -33 0
-99 98 0
-99 33 0
100 -734 -97 0
-100 734 0
-100 97 0
101 -16 -9 0
-101 16 0
-101 9 0
102 -101 -3 0
-102 101 0
-102 3 0
103 -735 -100 0
-103 735 0
-103 100 0
104 -723 -728 0
-104 723 0
-104 728 0
105 -104 -736 0
-105 104 0
-105 736 0
106 -737 -103 0
-106 737 0
-106 103 0
107 -35 -738 0
-107 35 0
-107 738 0
108 -107 -26 0
-108 107 0
-108 26 0
109 -739 -106 0
-109 739 0
-109 106 0
110 -740 -705 0
-110 740 0
-110 705 0
111 -110 -720 0
-111 110 0
-111 720 0
112 -741 -109 0
-112 741 0
-112 109 0
113 -742 -700 0
-113 742 0
-113 700 0
114 -113 -13 0
-114 113 0
-114 13 0
115 -743 -112 0
-115 743 0
-115 112 0
116 -744 -745 0
-116 744 0
-116 745 0
117 -116 -13 0
-117 116 0
-117 13 0
118 -746 -115 0
-118 746 0
-118 115 0
119 -747 -21 0
-119 747 0
-119 21 0
120 -119 -716 0
-120 119 0
-120 716 0
121 -748 -118 0
-121 748 0
-121 118 0
122 -35 -22 0
-122 35 0
-122 22 0
123 -122 -747 0
-123 122 0
-123 747 0
124 -749 -121 0
-124 749 0
-124 121 0
125 -713 -750 0
-125 713 0
-125 750 0
126 -125 -751 0
-126 125 0
-126 751 0
127 -752 -124 0
-127 752 0
-127 124 0
128 -738 -6 0
-128 738 0
-128 6 0
129 -128 -10 0
-129 128 0
-129 10 0
130 -753 -127 0
-130 753 0
-130 127 0
131 -40 -723 0
-131 40 0
-131 723 0
132 -131 -31 0
-132 131 0
-132 31 0
133 -754 -130 0
-133 754 0
-133 130 0
134 -755 -20 0
-134 755 0
-134 20 0
135 -134 -14 0
-135 134 0
-135 14 0
136 -756 -133 0
-136 756 0
-136 133 0
137 -713 -700 0
-137 713 0
-137 700 0
138 -137 -17 0
-138 137 0
-138 17 0
139 -757 -136 0
-139 757 0
-139 136 0
140 -758 -759 0
-140 758 0
-140 759 0
141 -140 -716 0
-141 140 0
-141 716 0
142 -760 -139 0
-142 760 0
-142 139 0
143 -45 -44 0
-143 45 0
-143 44 0
144 -143 -33 0
-144 143 0
-144 33 0
145 -761 -142 0
-145 761 0
-145 142 0
146 -718 -762 0
-146 718 0
-146 762 0
147 -146 -729 0
-147 146 0
-147 729 0
148 -763 -145 0
-148 763 0
-148 145 0
149 -46 -764 0
-149 46 0
-149 764 0
150 -149 -762 0
-150 149 0
-150 762 0
151 -765 -148 0
-151 765 0
-151 148 0
152 -766 -11 0
-152 766 0
-152 11 0
153 -152 -22 0
-153 152 0
-153 22 0
154 -767 -151 0
-154 767 0
-154 151 0
155 -768 -41 0
-155 768 0
-155 41 0
156 -155 -714 0
-156 155 0
-156 714 0
157 -769 -154 0
-157 769 0
-157 154 0
158 -38 -738 0
-158 38 0
-158 738 0
159 -158 -708 0
-159 158 0
-159 708 0
160 -770 -157 0
-160 770 0
-160 157 0
161 -759 -750 0
-161 759 0
-161 750 0
162 -161 -11 0
-162 161 0
-162 11 0
163 -771 -160 0
-163 771 0
-163 160 0
164 -39 -37 0
-164 39 0
-164 37 0
165 -164 -742 0
-165 164 0
-165 742 0
166 -772 -163 0
-166 772 0
-166 163 0
167 -766 -740 0
-167 766 0
-167 740 0
168 -167 -773 0
-168 167 0
-168 773 0
169 -774 -166 0
-169 774 0
-169 166 0
170 -768 -7 0
-170 768 0
-170 7 0
171 -170 -736 0
-171 170 0
-171 736 0
172 -775 -169 0
-172 775 0
-172 169 0
173 -759 -18 0
-173 759 0
-173 18 0
174 -173 -740 0
-174 173 0
-174 740 0
175 -776 -172 0
-175 776 0
-175 172 0
176 -18 -1 0
-176 18 0
-176 1 0
177 -176 -8 0
-177 176 0
-177 8 0
178 -777 -175 0
-178 777 0
-178 175 0
179 -27 -9 0
-179 27 0
-179 9 0
180 -179 -742 0
-180 179 0
-180 742 0
181 -778 -178 0
-181 778 0
-181 178 0
182 -779 -723 0
-182 779 0
-182 723 0
183 -182 -23 0
-183 182 0
-183 23 0
184 -780 -181 0
-184 780 0
-184 181 0
185 -49 -48 0
-185 49 0
-185 48 0
186 -185 -773 0
-186 185 0
-186 773 0
187 -781 -184 0
-187 781 0
-187 184 0
188 -40 -713 0
-188 40 0
-188 713 0
189 -188 -728 0
-189 188 0
-189 728 0
190 -782 -187 0
-190 782 0
-190 187 0
191 -755 -720 0
-191 755 0
-191 720 0
192 -191 -17 0
-192 191 0
-192 17 0
193 -783 -190 0
-193 783 0
-193 190 0
194 -24 -705 0
-194 24 0
-194 705 0
195 -194 -11 0
-195 194 0
-195 11 0
196 -784 -193 0
-196 784 0
-196 193 0
197 -36 -723 0
-197 36 0
-197 723 0
198 -197 -747 0
-198 197 0
-198 747 0
199 -785 -196 0
-199 785 0
-199 196 0
200 -786 -787 0
-200 786 0
-200 787 0
201 -200 -788 0
-201 200 0
-201 788 0
202 -789 -199 0
-202 789 0
-202 199 0
203 -706 -5 0
-203 706 0
-203 5 0
204 -203 -736 0
-204 203 0
-204 736 0
205 -790 -202 0
-205 790 0
-205 202 0
206 -31 -706 0
-206 31 0
-206 706 0
207 -206 -28 0
-207 206 0
-207 28 0
208 -791 -205 0
-208 791 0
-208 205 0
209 -42 -41 0
-209 42 0
-209 41 0
210 -209 -19 0
-210 209 0
-210 19 0
211 -792 -208 0
-211 792 0
-211 208 0
212 -793 -794 0
-212 793 0
-212 794 0
213 -212 -795 0
-213 212 0
-213 795 0
214 -796 -211 0
-214 796 0
-214 211 0
215 -35 -797 0
-215 35 0
-215 797 0
216 -215 -29 0
-216 215 0
-216 29 0
217 -798 -214 0
-217 798 0
-217 214 0
218 -766 -720 0
-218 766 0
-218 720 0
219 -218 -729 0
-219 218 0
-219 729 0
220 -799 -217 0
-220 799 0
-220 217 0
221 -46 -786 0
-221 46 0
-221 786 0
222 -221 -39 0
-222 221 0
-222 39 0
223 -800 -220 0
-223 800 0
-223 220 0
224 -21 -728 0
-224 21 0
-224 728 0
225 -224 -758 0
-225 224 0
-225 758 0
226 -801 -223 0
-226 801 0
-226 223 0
227 -768 -27 0
-227 768 0
-227 27 0
228 -227 -706 0
-228 227 0
-228 706 0
229 -802 -226 0
-229 802 0
-229 226 0
230 -42 -727 0
-230 42 0
-230 727 0
231 -230 -5 0
-231 230 0
-231 5 0
232 -803 -229 0
-232 803 0
-232 229 0
233 -804 -2 0
-233 804 0
-233 2 0
234 -233 -729 0
-234 233 0
-234 729 0
235 -805 -232 0
-235 805 0
-235 232 0
236 -44 -18 0
-236 44 0
-236 18 0
237 -236 -28 0
-237 236 0
-237 28 0
238 -806 -235 0
-238 806 0
-238 235 0
239 -30 -2 0
-239 30 0
-239 2 0
240 -239 -708 0
-240 239 0
-240 708 0
241 -807 -238 0
-241 807 0
-241 238 0
242 -8 -787 0
-242 8 0
-242 787 0
243 -242 -3 0
-243 242 0
-243 3 0
244 -808 -241 0
-244 808 0
-244 241 0
245 -786 -751 0
-245 786 0
-245 751 0
246 -245 -13 0
-246 245 0
-246 13 0
247 -809 -244 0
-247 809 0
-247 244 0
248 -794 -727 0
-248 794 0
-248 727 0
249 -248 -810 0
-249 248 0
-249 810 0
250 -811 -247 0
-250 811 0
-250 247 0
251 -812 -18 0
-251 812 0
-251 18 0
252 -251 -704 0
-252 251 0
-252 704 0
253 -813 -250 0
-253 813 0
-253 250 0
254 -751 -34 0
-254 751 0
-254 34 0
255 -254 -700 0
-255 254 0
-255 700 0
256 -814 -253 0
-256 814 0
-256 253 0
257 -26 -815 0
-257 26 0
-257 815 0
258 -257 -14 0
-258 257 0
-258 14 0
259 -816 -256 0
-259 816 0
-259 256 0
260 -723 -8 0
-260 723 0
-260 8 0
261 -260 -768 0
-261 260 0
-261 768 0
262 -817 -259 0
-262 817 0
-262 259 0
263 -751 -2 0
-263 751 0
-263 2 0
264 -263 -804 0
-264 263 0
-264 804 0
265 -818 -262 0
-265 818 0
-265 262 0
266 -779 -24 0
-266 779 0
-266 24 0
267 -266 -759 0
-267 266 0
-267 759 0
268 -819 -265 0
-268 819 0
-268 265 0
269 -705 -797 0
-269 705 0
-269 797 0
270 -269 -736 0
-270 269 0
-270 736 0
271 -820 -268 0
-271 820 0
-271 268 0
272 -23 -18 0
-272 23 0
-272 18 0
273 -272 -744 0
-273 272 0
-273 744 0
274 -821 -271 0
-274 821 0
-274 271 0
275 -27 -762 0
-275 27 0
-275 762 0
276 -275 -793 0
-276 275 0
-276 793 0
277 -822 -274 0
-277 822 0
-277 274 0
278 -31 -788 0
-278 31 0
-278 788 0
279 -278 -716 0
-279 278 0
-279 716 0
280 -823 -277 0
-280 823 0
-280 277 0
281 -810 -43 0
-281 810 0
-281 43 0
282 -281 -824 0
-282 281 0
-282 824 0
283 -825 -280 0
-283 825 0
-283 280 0
284 -18 -815 0
-284 18 0
-284 815 0
285 -284 -1 0
-285 284 0
-285 1 0
286 -826 -283 0
-286 826 0
-286 283 0
287 -20 -1 0
-287 20 0
-287 1 0
288 -287 -766 0
-288 287 0
-288 766 0
289 -827 -286 0
-289 827 0
-289 286 0
290 -48 -44 0
-290 48 0
-290 44 0
291 -290 -706 0
-291 290 0
-291 706 0
292 -828 -289 0
-292 828 0
-292 289 0
293 -49 -700 0
-293 49 0
-293 700 0
294 -293 -711 0
-294 293 0
-294 711 0
295 -829 -292 0
-295 829 0
-295 292 0
296 -723 -7 0
-296 723 0
-296 7 0
297 -296 -22 0
-297 296 0
-297 22 0
298 -830 -295 0
-298 830 0
-298 295 0
299 -31 -9 0
-299 31 0
-299 9 0
300 -299 -26 0
-300 299 0
-300 26 0
301 -831 -298 0
-301 831 0
-301 298 0
302 -46 -18 0
-302 46 0
-302 18 0
303 -302 -35 0
-303 302 0
-303 35 0
304 -832 -301 0
-304 832 0
-304 301 0
305 -24 -21 0
-305 24 0
-305 21 0
306 -305 -744 0
-306 305 0
-306 744 0
307 -833 -304 0
-307 833 0
-307 304 0
308 -738 -834 0
-308 738 0
-308 834 0
309 -308 -30 0
-309 308 0
-309 30 0
310 -835 -307 0
-310 835 0
-310 307 0
311 -766 -2 0
-311 766 0
-311 2 0
312 -311 -744 0
-312 311 0
-312 744 0
313 -836 -310 0
-313 836 0
-313 310 0
314 -768 -704 0
-314 768 0
-314 704 0
315 -314 -11 0
-315 314 0
-315 11 0
316 -837 -313 0
-316 837 0
-316 313 0
317 -766 -718 0
-317 766 0
-317 718 0
318 -317 -50 0
-318 317 0
-318 50 0
319 -838 -316 0
-319 838 0
-319 316 0
320 -30 -5 0
-320 30 0
-320 5 0
321 -320 -795 0
-321 320 0
-321 795 0
322 -839 -319 0
-322 839 0
-322 319 0
323 -22 -5 0
-323 22 0
-323 5 0
324 -323 -26 0
-324 323 0
-324 26 0
325 -840 -322 0
-325 840 0
-325 322 0
326 -751 -20 0
-326 751 0
-326 20 0
327 -326 -8 0
-327 326 0
-327 8 0
328 -841 -325 0
-328 841 0
-328 325 0
329 -36 -27 0
-329 36 0
-329 27 0
330 -329 -704 0
-330 329 0
-330 704 0
331 -842 -328 0
-331 842 0
-331 328 0
332 -723 -709 0
-332 723 0
-332 709 0
333 -332 -45 0
-333 332 0
-333 45 0
334 -843 -331 0
-334 843 0
-334 331 0
335 -25 -787 0
-335 25 0
-335 787 0
336 -335 -729 0
-336 335 0
-336 729 0
337 -844 -334 0
-337 844 0
-337 334 0
338 -49 -787 0
-338 49 0
-338 787 0
339 -338 -33 0
-339 338 0
-339 33 0
340 -845 -337 0
-340 845 0
-340 337 0
341 -755 -797 0
-341 755 0
-341 797 0
342 -341 -716 0
-342 341 0
-342 716 0
343 -846 -340 0
-343 846 0
-343 340 0
344 -744 -727 0
-344 744 0
-344 727 0
345 -344 -729 0
-345 344 0
-345 729 0
346 -847 -343 0
-346 847 0
-346 343 0
347 -27 -848 0
-347 27 0
-347 848 0
348 -347 -3 0
-348 347 0
-348 3 0
349 -849 -346 0
-349 849 0
-349 346 0
350 -42 -740 0
-350 42 0
-350 740 0
351 -350 -2 0
-351 350 0
-351 2 0
352 -850 -349 0
-352 850 0
-352 349 0
353 -40 -727 0
-353 40 0
-353 727 0
354 -353 -34 0
-354 353 0
-354 34 0
355 -851 -352 0
-355 851 0
-355 352 0
356 -50 -46 0
-356 50 0
-356 46 0
357 -356 -16 0
-357 356 0
-357 16 0
358 -852 -355 0
-358 852 0
-358 355 0
359 -31 -729 0
-359 31 0
-359 729 0
360 -359 -708 0
-360 359 0
-360 708 0
361 -853 -358 0
-361 853 0
-361 358 0
362 -37 -12 0
-362 37 0
-362 12 0
363 -362 -26 0
-363 362 0
-363 26 0
364 -854 -361 0
-364 854 0
-364 361 0
365 -740 -15 0
-365 740 0
-365 15 0
366 -365 -773 0
-366 365 0
-366 773 0
367 -855 -364 0
-367 855 0
-367 364 0
368 -32 -11 0
-368 32 0
-368 11 0
369 -368 -45 0
-369 368 0
-369 45 0
370 -856 -367 0
-370 856 0
-370 367 0
371 -751 -740 0
-371 751 0
-371 740 0
372 -371 -744 0
-372 371 0
-372 744 0
373 -857 -370 0
-373 857 0
-373 370 0
374 -740 -709 0
-374 740 0
-374 709 0
375 -374 -714 0
-375 374 0
-375 714 0
376 -858 -373 0
-376 858 0
-376 373 0
377 -46 -759 0
-377 46 0
-377 759 0
378 -377 -725 0
-378 377 0
-378 725 0
379 -859 -376 0
-379 859 0
-379 376 0
380 -738 -750 0
-380 738 0
-380 750 0
381 -380 -44 0
-381 380 0
-381 44 0
382 -860 -379 0
-382 860 0
-382 379 0
383 -834 -31 0
-383 834 0
-383 31 0
384 -383 -22 0
-384 383 0
-384 22 0
385 -861 -382 0
-385 861 0
-385 382 0
386 -40 -815 0
-386 40 0
-386 815 0
387 -386 -35 0
-387 386 0
-387 35 0
388 -862 -385 0
-388 862 0
-388 385 0
389 -37 -24 0
-389 37 0
-389 24 0
390 -389 -773 0
-390 389 0
-390 773 0
391 -863 -388 0
-391 863 0
-391 388 0
392 -35 -32 0
-392 35 0
-392 32 0
393 -392 -788 0
-393 392 0
-393 788 0
394 -864 -391 0
-394 864 0
-394 391 0
395 -48 -793 0
-395 48 0
-395 793 0
396 -395 -795 0
-396 395 0
-396 795 0
397 -865 -394 0
-397 865 0
-397 394 0
398 -20 -4 0
-398 20 0
-398 4 0
399 -398 -48 0
-399 398 0
-399 48 0
400 -866 -397 0
-400 866 0
-400 397 0
401 -36 -21 0
-401 36 0
-401 21 0
402 -401 -824 0
-402 401 0
-402 824 0
403 -867 -400 0
-403 867 0
-403 400 0
404 -804 -740 0
-404 804 0
-404 740 0
405 -404 -16 0
-405 404 0
-405 16 0
406 -868 -403 0
-406 868 0
-406 403 0
407 -191 -742 0
-407 191 0
-407 742 0
408 -869 -406 0
-408 869 0
-408 406 0
409 -32 -764 0
-409 32 0
-409 764 0
410 -409 -700 0
-410 409 0
-410 700 0
411 -870 -408 0
-411 870 0
-411 408 0
412 -744 -762 0
-412 744 0
-412 762 0
413 -412 -728 0
-413 412 0
-413 728 0
414 -871 -411 0
-414 871 0
-414 411 0
415 -779 -745 0
-415 779 0
-415 745 0
416 -415 -736 0
-416 415 0
-416 736 0
417 -872 -414 0
-417 872 0
-417 414 0
418 -768 -42 0
-418 768 0
-418 42 0
419 -418 -22 0
-419 418 0
-419 22 0
420 -873 -417 0
-420 873 0
-420 417 0
421 -194 -742 0
-421 194 0
-421 742 0
422 -874 -420 0
-422 874 0
-422 420 0
423 -34 -762 0
-423 34 0
-423 762 0
424 -423 -43 0
-424 423 0
-424 43 0
425 -875 -422 0
-425 875 0
-425 422 0
426 -15 -2 0
-426 15 0
-426 2 0
427 -426 -8 0
-427 426 0
-427 8 0
428 -876 -425 0
-428 876 0
-428 425 0
429 -751 -8 0
-429 751 0
-429 8 0
430 -429 -29 0
-430 429 0
-430 29 0
431 -877 -428 0
-431 877 0
-431 428 0
432 -32 -725 0
-432 32 0
-432 725 0
433 -432 -14 0
-433 432 0
-433 14 0
434 -878 -431 0
-434 878 0
-434 431 0
435 -33 -713 0
-435 33 0
-435 713 0
436 -435 -17 0
-436 435 0
-436 17 0
437 -879 -434 0
-437 879 0
-437 434 0
438 -713 -1 0
-438 713 0
-438 1 0
439 -438 -17 0
-439 438 0
-439 17 0
440 -880 -437 0
-440 880 0
-440 437 0
441 -720 -18 0
-441 720 0
-441 18 0
442 -441 -768 0
-442 441 0
-442 768 0
443 -881 -440 0
-443 881 0
-443 440 0
444 -786 -15 0
-444 786 0
-444 15 0
445 -444 -745 0
-445 444 0
-445 745 0
446 -882 -443 0
-446 882 0
-446 443 0
447 -787 -700 0
-447 787 0
-447 700 0
448 -447 -17 0
-448 447 0
-448 17 0
449 -883 -446 0
-449 883 0
-449 446 0
450 -751 -6 0
-450 751 0
-450 6 0
451 -450 -22 0
-451 450 0
-451 22 0
452 -884 -449 0
-452 884 0
-452 449 0
453 -779 -720 0
-453 779 0
-453 720 0
454 -453 -33 0
-454 453 0
-454 33 0
455 -885 -452 0
-455 885 0
-455 452 0
456 -834 -30 0
-456 834 0
-456 30 0
457 -456 -41 0
-457 456 0
-457 41 0
458 -886 -455 0
-458 886 0
-458 455 0
459 -786 -5 0
-459 786 0
-459 5 0
460 -459 -736 0
-460 459 0
-460 736 0
461 -887 -458 0
-461 887 0
-461 458 0
462 -725 -706 0
-462 725 0
-462 706 0
463 -462 -19 0
-463 462 0
-463 19 0
464 -888 -461 0
-464 888 0
-464 461 0
465 -738 -700 0
-465 738 0
-465 700 0
466 -465 -706 0
-466 465 0
-466 706 0
467 -889 -464 0
-467 889 0
-467 464 0
468 -47 -27 0
-468 47 0
-468 27 0
469 -468 -11 0
-469 468 0
-469 11 0
470 -890 -467 0
-470 890 0
-470 467 0
471 -766 -787 0
-471 766 0
-471 787 0
472 -471 -706 0
-472 471 0
-472 706 0
473 -891 -470 0
-473 891 0
-473 470 0
474 -10 -700 0
-474 10 0
-474 700 0
475 -474 -13 0
-475 474 0
-475 13 0
476 -892 -473 0
-476 892 0
-476 473 0
477 -764 -5 0
-477 764 0
-477 5 0
478 -477 -19 0
-478 477 0
-478 19 0
479 -893 -476 0
-479 893 0
-479 476 0
480 -804 -9 0
-480 804 0
-480 9 0
481 -480 -788 0
-481 480 0
-481 788 0
482 -894 -479 0
-482 894 0
-482 479 0
483 -786 -9 0
-483 786 0
-483 9 0
484 -483 -720 0
-484 483 0
-484 720 0
485 -895 -482 0
-485 895 0
-485 482 0
486 -35 -19 0
-486 35 0
-486 19 0
487 -486 -729 0
-487 486 0
-487 729 0
488 -896 -485 0
-488 896 0
-488 485 0
489 -758 -4 0
-489 758 0
-489 4 0
490 -489 -755 0
-490 489 0
-490 755 0
491 -897 -488 0
-491 897 0
-491 488 0
492 -804 -40 0
-492 804 0
-492 40 0
493 -492 -37 0
-493 492 0
-493 37 0
494 -898 -491 0
-494 898 0
-494 491 0
495 -50 -8 0
-495 50 0
-495 8 0
496 -495 -10 0
-496 495 0
-496 10 0
497 -899 -494 0
-497 899 0
-497 494 0
498 -25 -762 0
-498 25 0
-498 762 0
499 -498 -26 0
-499 498 0
-499 26 0
500 -900 -497 0
-500 900 0
-500 497 0
501 -49 -2 0
-501 49 0
-501 2 0
502 -501 -45 0
-502 501 0
-502 45 0
503 -901 -500 0
-503 901 0
-503 500 0
504 -7 -797 0
-504 7 0
-504 797 0
505 -504 -26 0
-505 504 0
-505 26 0
506 -902 -503 0
-506 902 0
-506 503 0
507 -848 -824 0
-507 848 0
-507 824 0
508 -507 -26 0
-508 507 0
-508 26 0
509 -903 -506 0
-509 903 0
-509 506 0
510 -36 -834 0
-510 36 0
-510 834 0
511 -510 -41 0
-511 510 0
-511 41 0
512 -904 -509 0
-512 904 0
-512 509 0
513 -720 -2 0
-513 720 0
-513 2 0
514 -513 -824 0
-514 513 0
-514 824 0
515 -905 -512 0
-515 905 0
-515 512 0
516 -751 -834 0
-516 751 0
-516 834 0
517 -516 -768 0
-517 516 0
-517 768 0
518 -906 -515 0
-518 906 0
-518 515 0
519 -43 -755 0
-519 43 0
-519 755 0
520 -519 -742 0
-520 519 0
-520 742 0
521 -907 -518 0
-521 907 0
-521 518 0
522 -751 -705 0
-522 751 0
-522 705 0
523 -522 -736 0
-523 522 0
-523 736 0
524 -908 -521 0
-524 908 0
-524 521 0
525 -725 -787 0
-525 725 0
-525 787 0
526 -525 -745 0
-526 525 0
-526 745 0
527 -909 -524 0
-527 909 0
-527 524 0
528 -768 -3 0
-528 768 0
-528 3 0
529 -528 -773 0
-529 528 0
-529 773 0
530 -910 -527 0
-530 910 0
-530 527 0
531 -37 -848 0
-531 37 0
-531 848 0
532 -531 -755 0
-532 531 0
-532 755 0
533 -911 -530 0
-533 911 0
-533 530 0
534 -39 -709 0
-534 39 0
-534 709 0
535 -534 -755 0
-535 534 0
-535 755 0
536 -912 -533 0
-536 912 0
-536 533 0
537 -764 -6 0
-537 764 0
-537 6 0
538 -537 -747 0
-538 537 0
-538 747 0
539 -913 -536 0
-539 913 0
-539 536 0
540 -32 -24 0
-540 32 0
-540 24 0
541 -540 -31 0
-541 540 0
-541 31 0
542 -914 -539 0
-542 914 0
-542 539 0
543 -25 -24 0
-543 25 0
-543 24 0
544 -543 -7 0
-544 543 0
-544 7 0
545 -915 -542 0
-545 915 0
-545 542 0
546 -8 -6 0
-546 8 0
-546 6 0
547 -546 -30 0
-547 546 0
-547 30 0
548 -916 -545 0
-548 916 0
-548 545 0
549 -723 -706 0
-549 723 0
-549 706 0
550 -549 -17 0
-550 549 0
-550 17 0
551 -917 -548 0
-551 917 0
-551 548 0
552 -723 -705 0
-552 723 0
-552 705 0
553 -552 -32 0
-553 552 0
-553 32 0
554 -918 -551 0
-554 918 0
-554 551 0
555 -46 -758 0
-555 46 0
-555 758 0
556 -555 -716 0
-556 555 0
-556 716 0
557 -919 -554 0
-557 919 0
-557 554 0
558 -744 -18 0
-558 744 0
-558 18 0
559 -558 -26 0
-559 558 0
-559 26 0
560 -920 -557 0
-560 920 0
-560 557 0
561 -718 -9 0
-561 718 0
-561 9 0
562 -561 -788 0
-562 561 0
-562 788 0
563 -921 -560 0
-563 921 0
-563 560 0
564 -723 -10 0
-564 723 0
-564 10 0
565 -564 -19 0
-565 564 0
-565 19 0
566 -922 -563 0
-566 922 0
-566 563 0
567 -44 -742 0
-567 44 0
-567 742 0
568 -567 -729 0
-568 567 0
-568 729 0
569 -923 -566 0
-569 923 0
-569 566 0
570 -46 -1 0
-570 46 0
-570 1 0
571 -570 -704 0
-571 570 0
-571 704 0
572 -924 -569 0
-572 924 0
-572 569 0
573 -46 -720 0
-573 46 0
-573 720 0
574 -573 -744 0
-574 573 0
-574 744 0
575 -925 -572 0
-575 925 0
-575 572 0
576 -25 -705 0
-576 25 0
-576 705 0
577 -576 -29 0
-577 576 0
-577 29 0
578 -926 -575 0
-578 926 0
-578 575 0
579 -729 -22 0
-579 729 0
-579 22 0
580 -579 -14 0
-580 579 0
-580 14 0
581 -927 -578 0
-581 927 0
-581 578 0
582 -47 -40 0
-582 47 0
-582 40 0
583 -582 -41 0
-583 582 0
-583 41 0
584 -928 -581 0
-584 928 0
-584 581 0
585 -759 -740 0
-585 759 0
-585 740 0
586 -585 -41 0
-586 585 0
-586 41 0
587 -929 -584 0
-587 929 0
-587 584 0
588 -812 -40 0
-588 812 0
-588 40 0
589 -588 -33 0
-589 588 0
-589 33 0
590 -930 -587 0
-590 930 0
-590 587 0
591 -35 -34 0
-591 35 0
-591 34 0
592 -591 -17 0
-592 591 0
-592 17 0
593 -931 -590 0
-593 931 0
-593 590 0
594 -794 -714 0
-594 794 0
-594 714 0
595 -594 -38 0
-595 594 0
-595 38 0
596 -932 -593 0
-596 932 0
-596 593 0
597 -43 -745 0
-597 43 0
-597 745 0
598 -597 -17 0
-598 597 0
-598 17 0
599 -933 -596 0
-599 933 0
-599 596 0
600 -709 -700 0
-600 709 0
-600 700 0
601 -600 -729 0
-601 600 0
-601 729 0
602 -934 -599 0
-602 934 0
-602 599 0
603 -766 -25 0
-603 766 0
-603 25 0
604 -603 -711 0
-604 603 0
-604 711 0
605 -935 -602 0
-605 935 0
-605 602 0
606 -725 -764 0
-606 725 0
-606 764 0
607 -606 -812 0
-607 606 0
-607 812 0
608 -936 -605 0
-608 936 0
-608 605 0
609 -401 -14 0
-609 401 0
-609 14 0
610 -937 -608 0
-610 937 0
-610 608 0
611 -7 -750 0
-611 7 0
-611 750 0
612 -611 -720 0
-612 611 0
-612 720 0
613 -938 -610 0
-613 938 0
-613 610 0
614 -41 -727 0
-614 41 0
-614 727 0
615 -614 -721 0
-615 614 0
-615 721 0
616 -939 -613 0
-616 939 0
-616 613 0
617 -815 -2 0
-617 815 0
-617 2 0
618 -617 -47 0
-618 617 0
-618 47 0
619 -940 -616 0
-619 940 0
-619 616 0
620 -50 -711 0
-620 50 0
-620 711 0
621 -620 -29 0
-621 620 0
-621 29 0
622 -941 -619 0
-622 941 0
-622 619 0
623 -25 -12 0
-623 25 0
-623 12 0
624 -623 -26 0
-624 623 0
-624 26 0
625 -942 -622 0
-625 942 0
-625 622 0
626 -25 -6 0
-626 25 0
-626 6 0
627 -626 -747 0
-627 626 0
-627 747 0
628 -943 -625 0
-628 943 0
-628 625 0
629 -48 -716 0
-629 48 0
-629 716 0
630 -629 -736 0
-630 629 0
-630 736 0
631 -944 -628 0
-631 944 0
-631 628 0
632 -47 -9 0
-632 47 0
-632 9 0
633 -632 -797 0
-633 632 0
-633 797 0
634 -945 -631 0
-634 945 0
-634 631 0
635 -742 -727 0
-635 742 0
-635 727 0
636 -635 -19 0
-636 635 0
-636 19 0
637 -946 -634 0
-637 946 0
-637 634 0
638 -720 -704 0
-638 720 0
-638 704 0
639 -638 -28 0
-639 638 0
-639 28 0
640 -947 -637 0
-640 947 0
-640 637 0
641 -786 -700 0
-641 786 0
-641 700 0
642 -641 -43 0
-642 641 0
-642 43 0
643 -948 -640 0
-643 948 0
-643 640 0
644 -786 -34 0
-644 786 0
-644 34 0
645 -644 -742 0
-645 644 0
-645 742 0
646 -949 -643 0
-646 949 0
-646 643 0
647 -727 -24 0
-647 727 0
-647 24 0
648 -647 -714 0
-648 647 0
-648 714 0
649 -950 -646 0
-649 950 0
-649 646 0
650 -786 -1 0
-650 786 0
-650 1 0
651 -650 -10 0
-651 650 0
-651 10 0
652 -951 -649 0
-652 951 0
-652 649 0
653 -786 -720 0
-653 786 0
-653 720 0
654 -653 -758 0
-654 653 0
-654 758 0
655 -952 -652 0
-655 952 0
-655 652 0
656 -27 -10 0
-656 27 0
-656 10 0
657 -656 -16 0
-657 656 0
-657 16 0
658 -953 -655 0
-658 953 0
-658 655 0
659 -815 -705 0
-659 815 0
-659 705 0
660 -659 -706 0
-660 659 0
-660 706 0
661 -954 -658 0
-661 954 0
-661 658 0
662 -36 -4 0
-662 36 0
-662 4 0
663 -662 -716 0
-663 662 0
-663 716 0
664 -955 -661 0
-664 955 0
-664 661 0
665 -11 -704 0
-665 11 0
-665 704 0
666 -665 -795 0
-666 665 0
-666 795 0
667 -956 -664 0
-667 956 0
-667 664 0
668 -729 -23 0
-668 729 0
-668 23 0
669 -668 -747 0
-669 668 0
-669 747 0
670 -957 -667 0
-670 957 0
-670 667 0
671 -251 -787 0
-671 251 0
-671 787 0
672 -958 -670 0
-672 958 0
-672 670 0
673 -27 -764 0
-673 27 0
-673 764 0
674 -673 -39 0
-674 673 0
-674 39 0
675 -959 -672 0
-675 959 0
-675 672 0
676 -43 -744 0
-676 43 0
-676 744 0
677 -676 -793 0
-677 676 0
-677 793 0
678 -960 -675 0
-678 960 0
-678 675 0
679 -49 -39 0
-679 49 0
-679 39 0
680 -679 -33 0
-680 679 0
-680 33 0
681 -961 -678 0
-681 961 0
-681 678 0
682 -44 -12 0
-682 44 0
-682 12 0
683 -682 -758 0
-683 682 0
-683 758 0
684 -962 -681 0
-684 962 0
-684 681 0
685 -713 -2 0
-685 713 0
-685 2 0
686 -685 -736 0
-686 685 0
-686 736 0
687 -963 -684 0
-687 963 0
-687 684 0
688 -848 -711 0
-688 848 0
-688 711 0
689 -688 -824 0
-689 688 0
-689 824 0
690 -964 -687 0
-690 964 0
-690 687 0
691 -10 -6 0
-691 10 0
-691 6 0
692 -691 -788 0
-692 691 0
-692 788 0
693 -965 -690 0
-693 965 0
-693 690 0
694 -39 -21 0
-694 39 0
-694 21 0
695 -694 -773 0
-695 694 0
-695 773 0
696 -966 -693 0
-696 966 0
-696 693 0
697 -12 -787 0
-697 12 0
-697 787 0
698 -697 -14 0
-698 697 0
-698 14 0
699 -967 -696 0
-699 967 0
-699 696 0
-700 -2 0
700 2 0
-701 -54 0
701 54 0
-702 -52 0
702 52 0
-703 -57 0
703 57 0
-704 -10 0
704 10 0
-705 -9 0
705 9 0
-706 -11 0
706 11 0
-707 -60 0
707 60 0
-708 -13 0
708 13 0
-709 -12 0
709 12 0
-710 -63 0
710 63 0
-711 -16 0
711 16 0
-712 -66 0
712 66 0
-713 -6 0
713 6 0
-714 -19 0
714 19 0
-715 -69 0
715 69 0
-716 -17 0
716 17 0
-717 -72 0
717 72 0
-718 -21 0
718 21 0
-719 -75 0
719 75 0
-720 -23 0
720 23 0
-721 -22 0
721 22 0
-722 -78 0
722 78 0
-723 -24 0
723 24 0
-724 -81 0
724 81 0
-725 -25 0
725 25 0
-726 -84 0
726 84 0
-727 -27 0
727 27 0
-728 -8 0
728 8 0
-729 -28 0
729 28 0
-730 -87 0
730 87 0
-731 -90 0
731 90 0
-732 -93 0
732 93 0
-733 -96 0
733 96 0
-734 -99 0
734 99 0
-735 -102 0
735 102 0
-736 -14 0
736 14 0
-737 -105 0
737 105 0
-738 -34 0
738 34 0
-739 -108 0
739 108 0
-740 -36 0
740 36 0
-741 -111 0
741 111 0
-742 -33 0
742 33 0
-743 -114 0
743 114 0
-744 -37 0
744 37 0
-745 -31 0
745 31 0
-746 -117 0
746 117 0
-747 -38 0
747 38 0
-748 -120 0
748 120 0
-749 -123 0
749 123 0
-750 -1 0
750 1 0
-751 -39 0
751 39 0
-752 -126 0
752 126 0
-753 -129 0
753 129 0
-754 -132 0
754 132 0
-755 -41 0
755 41 0
-756 -135 0
756 135 0
-757 -138 0
757 138 0
-758 -43 0
758 43 0
-759 -42 0
759 42 0
-760 -141 0
760 141 0
-761 -144 0
761 144 0
-762 -4 0
762 4 0
-763 -147 0
763 147 0
-764 -18 0
764 18 0
-765 -150 0
765 150 0
-766 -47 0
766 47 0
-767 -153 0
767 153 0
-768 -48 0
768 48 0
-769 -156 0
769 156 0
-770 -159 0
770 159 0
-771 -162 0
771 162 0
-772 -165 0
772 165 0
-773 -29 0
773 29 0
-774 -168 0
774 168 0
-775 -171 0
775 171 0
-776 -174 0
776 174 0
-777 -177 0
777 177 0
-778 -180 0
778 180 0
-779 -46 0
779 46 0
-780 -183 0
780 183 0
-781 -186 0
781 186 0
-782 -189 0
782 189 0
-783 -192 0
783 192 0
-784 -195 0
784 195 0
-785 -198 0
785 198 0
-786 -40 0
786 40 0
-787 -7 0
787 7 0
-788 -30 0
788 30 0
-789 -201 0
789 201 0
-790 -204 0
790 204 0
-791 -207 0
791 207 0
-792 -210 0
792 210 0
-793 -45 0
793 45 0
-794 -35 0
794 35 0
-795 -26 0
795 26 0
-796 -213 0
796 213 0
-797 -5 0
797 5 0
-798 -216 0
798 216 0
-799 -219 0
799 219 0
-800 -222 0
800 222 0
-801 -225 0
801 225 0
-802 -228 0
802 228 0
-803 -231 0
803 231 0
-804 -44 0
804 44 0
-805 -234 0
805 234 0
-806 -237 0
806 237 0
-807 -240 0
807 240 0
-808 -243 0
808 243 0
-809 -246 0
809 246 0
-810 -50 0
810 50 0
-811 -249 0
811 249 0
-812 -49 0
812 49 0
-813 -252 0
813 252 0
-814 -255 0
814 255 0
-815 -15 0
815 15 0
-816 -258 0
816 258 0
-817 -261 0
817 261 0
-818 -264 0
818 264 0
-819 -267 0
819 267 0
-820 -270 0
820 270 0
-821 -273 0
821 273 0
-822 -276 0
822 276 0
-823 -279 0
823 279 0
-824 -3 0
824 3 0
-825 -282 0
825 282 0
-826 -285 0
826 285 0
-827 -288 0
827 288 0
-828 -291 0
828 291 0
-829 -294 0
829 294 0
-830 -297 0
830 297 0
-831 -300 0
831 300 0
-832 -303 0
832 303 0
-833 -306 0
833 306 0
-834 -32 0
834 32 0
-835 -309 0
835 309 0
-836 -312 0
836 312 0
-837 -315 0
837 315 0
-838 -318 0
838 318 0
-839 -321 0
839 321 0
-840 -324 0
840 324 0
-841 -327 0
841 327 0
-842 -330 0
842 330 0
-843 -333 0
843 333 0
-844 -336 0
844 336 0
-845 -339 0
845 339 0
-846 -342 0
846 342 0
-847 -345 0
847 345 0
-848 -20 0
848 20 0
-849 -348 0
849 348 0
-850 -351 0
850 351 0
-851 -354 0
851 354 0
-852 -357 0
852 357 0
-853 -360 0
853 360 0
-854 -363 0
854 363 0
-855 -366 0
855 366 0
-856 -369 0
856 369 0
-857 -372 0
857 372 0
-858 -375 0
858 375 0
-859 -378 0
859 378 0
-860 -381 0
860 381 0
-861 -384 0
861 384 0
-862 -387 0
862 387 0
-863 -390 0
863 390 0
-864 -393 0
864 393 0
-865 -396 0
865 396 0
-866 -399 0
866 399 0
-867 -402 0
867 402 0
-868 -405 0
868 405 0
-869 -407 0
869 407 0
-870 -410 0
870 410 0
-871 -413 0
871 413 0
-872 -416 0
872 416 0
-873 -419 0
873 419 0
-874 -421 0
874 421 0
-875 -424 0
875 424 0
-876 -427 0
876 427 0
-877 -430 0
877 430 0
-878 -433 0
878 433 0
-879 -436 0
879 436 0
-880 -439 0
880 439 0
-881 -442 0
881 442 0
-882 -445 0
882 445 0
-883 -448 0
883 448 0
-884 -451 0
884 451 0
-885 -454 0
885 454 0
-886 -457 0
886 457 0
-887 -460 0
887 460 0
-888 -463 0
888 463 0
-889 -466 0
889 466 0
-890 -469 0
890 469 0
-891 -472 0
891 472 0
-892 -475 0
892 475 0
-893 -478 0
893 478 0
-894 -481 0
894 481 0
-895 -484 0
895 484 0
-896 -487 0
896 487 0
-897 -490 0
897 490 0
-898 -493 0
898 493 0
-899 -496 0
899 496 0
-900 -499 0
900 499 0
-901 -502 0
901 502 0
-902 -505 0
902 505 0
-903 -508 0
903 508 0
-904 -511 0
904 511 0
-905 -514 0
905 514 0
-906 -517 0
906 517 0
-907 -520 0
907 520 0
-908 -523 0
908 523 0
-909 -526 0
909 526 0
-910 -529 0
910 529 0
-911 -532 0
911 532 0
-912 -535 0
912 535 0
-913 -538 0
913 538 0
-914 -541 0
914 541 0
-915 -544 0
915 544 0
-916 -547 0
916 547 0
-917 -550 0
917 550 0
-918 -553 0
918 553 0
-919 -556 0
919 556 0
-920 -559 0
920 559 0
-921 -562 0
921 562 0
-922 -565 0
922 565 0
-923 -568 0
923 568 0
-924 -571 0
924 571 0
-925 -574 0
925 574 0
-926 -577 0
926 577 0
-927 -580 0
927 580 0
-928 -583 0
928 583 0
-929 -586 0
929 586 0
-930 -589 0
930 589 0
-931 -592 0
931 592 0
-932 -595 0
932 595 0
-933 -598 0
933 598 0
-934 -601 0
934 601 0
-935 -604 0
935 604 0
-936 -607 0
936 607 0
-937 -609 0
937 609 0
-938 -612 0
938 612 0
-939 -615 0
939 615 0
-940 -618 0
940 618 0
-941 -621 0
941 621 0
-942 -624 0
942 624 0
-943 -627 0
943 627 0
-944 -630 0
944 630 0
-945 -633 0
945 633 0
-946 -636 0
946 636 0
-947 -639 0
947 639 0
-948 -642 0
948 642 0
-949 -645 0
949 645 0
-950 -648 0
950 648 0
-951 -651 0
951 651 0
-952 -654 0
952 654 0
-953 -657 0
953 657 0
-954 -660 0
954 660 0
-955 -663 0
955 663 0
-956 -666 0
956 666 0
-957 -669 0
957 669 0
-958 -671 0
958 671 0
-959 -674 0
959 674 0
-960 -677 0
960 677 0
-961 -680 0
961 680 0
-962 -683 0
962 683 0
-963 -686 0
963 686 0
-964 -689 0
964 689 0
-965 -692 0
965 692 0
-966 -695 0
966 695 0
-967 -698 0
967 698 0
699 0
